(declare-fun temp2426_1 () (_ BitVec 64))
(declare-fun var267017 () (_ BitVec 64))
(declare-fun var267004 () (_ BitVec 64))
(declare-fun var201264 () (_ BitVec 64))
(declare-fun temp2426_2 () (_ BitVec 64))
(declare-fun temp2426_3 () (_ BitVec 64))
(declare-fun ARGNAME_input_NAMEEND_DIM () (_ BitVec 64))
(declare-fun var1578067 () (_ BitVec 64))
(declare-fun temp2426_4 () (_ BitVec 64))
(declare-fun temp2426_5 () (_ BitVec 64))
(declare-fun var2249329 () (_ BitVec 64))
(declare-fun temp2426_6 () (_ BitVec 64))
(declare-fun var2249330 () (_ BitVec 64))
(declare-fun temp2426_7 () (_ BitVec 64))
(declare-fun var2249337 () (_ BitVec 64))
(declare-fun var2249371 () (_ BitVec 64))
(declare-fun temp2426_8 () (_ BitVec 64))
(declare-fun var2765629 () (_ BitVec 64))
(declare-fun temp2426_9 () (_ BitVec 64))
(declare-fun var2831165 () (_ BitVec 64))
(declare-fun temp2426_10 () (_ BitVec 64))
(declare-fun var3486525 () (_ BitVec 64))
(declare-fun temp2426_11 () (_ BitVec 64))
(declare-fun var3552061 () (_ BitVec 64))
(declare-fun temp2426_12 () (_ BitVec 64))
(declare-fun ARGNAME_keepdim_NAMEEND () (_ BitVec 64))
(declare-fun temp2426_13 () (_ BitVec 64))
(declare-fun var3617597 () (_ BitVec 64))
(declare-fun temp2426_14 () (_ BitVec 64))
(declare-fun var3683133 () (_ BitVec 64))
(declare-fun temp2426_15 () (_ BitVec 64))
(declare-fun var3748669 () (_ BitVec 64))
(declare-fun temp2426_16 () (_ BitVec 64))
(declare-fun var3879741 () (_ BitVec 64))
(declare-fun temp2426_18 () (_ BitVec 64))
(declare-fun temp2426_17 () (_ BitVec 64))
(declare-fun temp2426_19 () (_ BitVec 64))
(declare-fun var3945277 () (_ BitVec 64))
(assert (= temp2426_1 #x0000000000000000))
(assert (= var267017 temp2426_1))
(assert (= var267004 var267017))
(assert (= var201264 var267004))
(assert (= temp2426_2 #x0000000000000000))
(assert (= var201264 temp2426_2))
(assert (= temp2426_3 #x0000000000000002))
(assert (= var1578067
   (ite (bvslt ARGNAME_input_NAMEEND_DIM temp2426_3)
        #x0000000000000001
        #x0000000000000000)))
(assert (= temp2426_4 #x0000000000000000))
(assert (= var1578067 temp2426_4))
(assert (= temp2426_5 #x0000000000000001))
(assert (= var2249329
   (ite (bvsgt ARGNAME_input_NAMEEND_DIM temp2426_5)
        #x0000000000000001
        #x0000000000000000)))
(assert (= temp2426_6 #x0000000000000001))
(assert (= var2249330
   (ite (= var2249329 #x0000000000000001) ARGNAME_input_NAMEEND_DIM temp2426_6)))
(assert (= temp2426_7 #xffffffffffffffff))
(assert (= var2249337 (bvadd var2249330 temp2426_7)))
(assert (= var2249371 var2249337))
(assert (= temp2426_8 #x0000000000000000))
(assert (= var2765629 temp2426_8))
(assert (= temp2426_9 #x0000000000000001))
(assert (= var2831165 temp2426_9))
(assert (= temp2426_10 #x0000000000000000))
(assert (= var3486525 temp2426_10))
(assert (= temp2426_11 #x0000000000000001))
(assert (= var3552061 temp2426_11))
(assert (= temp2426_12 #x0000000000000000))
(assert (= ARGNAME_keepdim_NAMEEND temp2426_12))
(assert (= temp2426_13 #x0000000000000000))
(assert (= var3617597 temp2426_13))
(assert (= temp2426_14 #x0000000000000001))
(assert (= var3683133 temp2426_14))
(assert (= temp2426_15 #x0000000000000001))
(assert (= var3748669 temp2426_15))
(assert (= temp2426_16 #x0000000000000000))
(assert (= var3879741 temp2426_16))
(assert (= temp2426_18 #x0000000000000001))
(assert (= temp2426_17 temp2426_18))
(assert (= temp2426_19 #x0000000000000001))
(assert (= var3945277 temp2426_19))
(model-add temp2426_1 () (_ BitVec 64) #x0000000000000000)
(model-add var267017 () (_ BitVec 64) #x0000000000000000)
(model-add var267004 () (_ BitVec 64) #x0000000000000000)
(model-add var201264 () (_ BitVec 64) #x0000000000000000)
(model-add temp2426_2 () (_ BitVec 64) #x0000000000000000)





